decision_x1=[0,2];
decision_x2=[0,2];
decision_x3=[0,2];
decision_x4=[0,2];
decision_x5=[0,2];
decision_x6=[0,2];
decision_x7=[0,2];
decision_x8=[0,2];
decision_x9=[0,2];
decision_x10=[0,2];
random_y1=[0,2];
random_y2=[0,2];
constraint_x2_x1=[
0,0,2.3|
0,1,7.4|
0,2,4.3|
1,0,2.2|
1,1,8.3|
1,2,9.6|
2,0,0.98|
2,1,1.2|
2,2,6.5|
];
constraint_x3_x1=[
0,0,8.2|
0,1,6.3|
0,2,1|
1,0,1|
1,1,7.6|
1,2,4.3|
2,0,4.4|
2,1,1.6|
2,2,3.7|
];
constraint_x3_x2=[
0,0,4.5|
0,1,9.5|
0,2,5.5|
1,0,9.5|
1,1,8.6|
1,2,9.3|
2,0,1.6|
2,1,9.1|
2,2,6.2|
];
constraint_x4_x1=[
0,0,2.6|
0,1,2.1|
0,2,1.2|
1,0,4.5|
1,1,9.3|
1,2,9.5|
2,0,8.4|
2,1,9.9|
2,2,0.26|
];
constraint_x5_x1=[
0,0,4.2|
0,1,4.4|
0,2,5.1|
1,0,0.95|
1,1,8|
1,2,2.2|
2,0,8.1|
2,1,2.3|
2,2,6.1|
];
constraint_x5_x2=[
0,0,9.4|
0,1,5.3|
0,2,2.8|
1,0,8.9|
1,1,5.4|
1,2,7.7|
2,0,7.2|
2,1,6.9|
2,2,4.8|
];
constraint_x5_x4=[
0,0,1.7|
0,1,1|
0,2,7.4|
1,0,6.1|
1,1,4.8|
1,2,1.7|
2,0,0.18|
2,1,3.4|
2,2,2.4|
];
constraint_x6_x1=[
0,0,6.5|
0,1,7.3|
0,2,4|
1,0,4.9|
1,1,4.3|
1,2,6.2|
2,0,6.7|
2,1,9.6|
2,2,6.4|
];
constraint_x6_x2=[
0,0,0.032|
0,1,1.9|
0,2,9.9|
1,0,1.6|
1,1,4.9|
1,2,3.7|
2,0,5|
2,1,7.4|
2,2,7.9|
];
constraint_x6_x3=[
0,0,1.2|
0,1,2.2|
0,2,5.5|
1,0,4.8|
1,1,8.7|
1,2,5.8|
2,0,2.8|
2,1,1.2|
2,2,5.6|
];
constraint_x6_x4=[
0,0,0.52|
0,1,4.5|
0,2,5.6|
1,0,7.5|
1,1,9.9|
1,2,6.7|
2,0,5.9|
2,1,7.3|
2,2,1.4|
];
constraint_x6_x5=[
0,0,0.3|
0,1,6.3|
0,2,3.2|
1,0,9.6|
1,1,8.9|
1,2,3.9|
2,0,9.1|
2,1,2.2|
2,2,5.9|
];
constraint_x7_x2=[
0,0,8|
0,1,2.2|
0,2,8.2|
1,0,8.9|
1,1,7.2|
1,2,3.1|
2,0,9.9|
2,1,5.1|
2,2,8.5|
];
constraint_x7_x4=[
0,0,4.9|
0,1,1.6|
0,2,2.1|
1,0,8.6|
1,1,8.5|
1,2,9.4|
2,0,4.5|
2,1,3.5|
2,2,8.1|
];
constraint_x7_x6=[
0,0,3.3|
0,1,6.5|
0,2,5.5|
1,0,8.8|
1,1,2.2|
1,2,2.6|
2,0,5.1|
2,1,7|
2,2,4.4|
];
constraint_x8_x1=[
0,0,2.1|
0,1,1.5|
0,2,8.4|
1,0,3|
1,1,8.9|
1,2,1.8|
2,0,6.3|
2,1,5.8|
2,2,6.4|
];
constraint_x8_x2=[
0,0,4.6|
0,1,3.6|
0,2,2.7|
1,0,3.5|
1,1,2.3|
1,2,7.2|
2,0,5.3|
2,1,9|
2,2,4.4|
];
constraint_x8_x5=[
0,0,2.2|
0,1,8.5|
0,2,8.4|
1,0,2.6|
1,1,6.4|
1,2,9.8|
2,0,6|
2,1,1.4|
2,2,6.8|
];
constraint_x9_x2=[
0,0,5.2|
0,1,1.5|
0,2,0.85|
1,0,6.5|
1,1,0.87|
1,2,6.3|
2,0,0.49|
2,1,5.4|
2,2,0.21|
];
constraint_x9_x4=[
0,0,0.77|
0,1,3.2|
0,2,8.4|
1,0,0.88|
1,1,7.8|
1,2,8.9|
2,0,3.1|
2,1,5|
2,2,9|
];
constraint_x9_x7=[
0,0,9.6|
0,1,3.2|
0,2,9.4|
1,0,2.9|
1,1,8.9|
1,2,6.3|
2,0,5.4|
2,1,5.2|
2,2,5.6|
];
constraint_x9_x8=[
0,0,0.3|
0,1,3|
0,2,7.1|
1,0,5.3|
1,1,9.9|
1,2,6.5|
2,0,3.9|
2,1,8.4|
2,2,0.29|
];
constraint_x10_x7=[
0,0,0.46|
0,1,8.9|
0,2,3.2|
1,0,6.5|
1,1,4.5|
1,2,8|
2,0,9.8|
2,1,9.2|
2,2,8.4|
];
constraint_x1_y1=[
0,0,0.66|
0,1,6.8|
0,2,6.8|
1,0,1.5|
1,1,3.9|
1,2,0.61|
2,0,9.6|
2,1,6|
2,2,0.15|
];
constraint_x2_y2=[
0,0,1.7|
0,1,5.8|
0,2,7.4|
1,0,5.6|
1,1,6.2|
1,2,5.2|
2,0,5.9|
2,1,9.6|
2,2,9.8|
];
initial_distribution_y1=[0.14,0.34,0.52];
initial_distribution_y2=[0.009,0.44,0.55];
transition_y1=[
0.59,0.41,0.0067|
0.59,0.18,0.23|
0.045,0.34,0.61|
];
transition_y2=[
0.38,0.49,0.14|
0.53,0.38,0.089|
0.27,0.33,0.4|
];
